solution status: optimal solution found
objective value:                                    0
one.pinholes[3].hole_out_d_z                        7 	(obj:0)
one.pinholes[3].hole_out_a_z                        8 	(obj:0)
$_19__1_y                                           9 	(obj:0)
$_19__1_z                                          13 	(obj:0)
$_23__1_y                                           9 	(obj:0)
$_23__1_z                                          15 	(obj:0)
$_24__1_y                                           5 	(obj:0)
$_24__1_z                                          13 	(obj:0)
$_21__1_z                                           9 	(obj:0)
one.pinholes[2].hole_out_d_y                        3 	(obj:0)
one.pinholes[2].hole_out_d_z                       12 	(obj:0)
one.pinholes[1].hole_out_a_y                        5 	(obj:0)
one.pinholes[1].hole_out_a_z                       16 	(obj:0)
one.pinholes[2].hole_out_a_y                        4 	(obj:0)
one.pinholes[2].hole_out_a_z                       11 	(obj:0)
one.pinholes[0].hole_out_d_y                        9 	(obj:0)
one.pinholes[0].hole_out_d_z                       18 	(obj:0)
$_18__1_y                                          12 	(obj:0)
$_18__1_z                                          12 	(obj:0)
one.pinholes[0].hole_out_a_y                        7 	(obj:0)
one.pinholes[0].hole_out_a_z                       18 	(obj:0)
$_20__1_y                                           5 	(obj:0)
$_20__1_z                                          10 	(obj:0)
one.ctrl_a[0].flush_y                              -1 	(obj:0)
one.ctrl_a[0].flush_z                               7 	(obj:0)
one.ctrl_a[0].hole_y                                7 	(obj:0)
one.ctrl_a[0].hole_z                               19 	(obj:0)
one.ctrl_a[12].flush_y                             -1 	(obj:0)
one.ctrl_a[12].flush_z                              8 	(obj:0)
$_22__1_y                                           9 	(obj:0)
$_22__1_z                                          24 	(obj:0)
one.ctrl_a[12].hole_y                               6 	(obj:0)
one.ctrl_a[12].hole_z                              19 	(obj:0)
one.pinholes[1].hole_out_d_y                        6 	(obj:0)
one.pinholes[1].hole_out_d_z                       15 	(obj:0)
$_25__1_y                                           1 	(obj:0)
$_25__1_z                                           9 	(obj:0)
